CKP/CKP_n50_Instance_10.lp
\ENCODING=ISO-8859-1
\Problem name: CKP

Maximize
 obj: x1 + x2 + x3 + x4 + x5 + x6 + x7 + x8 + x9 + x10 + x11 + x12 + x13 + x14
      + x15 + x16 + x17 + x18 + x19 + x20 + x21 + x22 + x23 + x24 + x25 + x26
      + x27 + x28 + x29 + x30 + x31 + x32 + x33 + x34 + x35 + x36 + x37 + x38
      + x39 + x40 + x41 + x42 + x43 + x44 + x45 + x46 + x47 + x48 + x49 + x50
Subject To
 c1: 15145 x1 + 15146 x2 + 15147 x3 + 15181 x4 + 15182 x5 + 15183 x6 + 15217 x7
     + 15218 x8 + 15219 x9 + 15821 x10 + 15822 x11 + 15823 x12 + 15857 x13
     + 15858 x14 + 15859 x15 + 15893 x16 + 15894 x17 + 15895 x18 + 16497 x19
     + 16498 x20 + 16499 x21 + 16533 x22 + 16534 x23 + 15145 x24 + 15146 x25
     + 15147 x26 + 15181 x27 + 15182 x28 + 15183 x29 + 15217 x30 + 15218 x31
     + 15822 x32 + 15823 x33 + 15857 x34 + 15895 x35 + 16497 x36 + 16498 x37
     + 16499 x38 + 16533 x39 + 16534 x40 + 16535 x41 + 16569 x42 + 16571 x43
     + 29579 x44 + 29580 x45 + 29615 x46 + 29616 x47 + 29652 x48 + 29653 x49
     + 30255 x50 >= 466572
 c2: 15145 x1 + 15146 x2 + 15147 x3 + 15181 x4 + 15182 x5 + 15183 x6 + 15217 x7
     + 15218 x8 + 15219 x9 + 15821 x10 + 15822 x11 + 15823 x12 + 15857 x13
     + 15858 x14 + 15859 x15 + 15893 x16 + 15894 x17 + 15895 x18 + 16497 x19
     + 16498 x20 + 16499 x21 + 16533 x22 + 16534 x23 + 15145 x24 + 15146 x25
     + 15147 x26 + 15181 x27 + 15182 x28 + 15183 x29 + 15217 x30 + 15218 x31
     + 15822 x32 + 15823 x33 + 15857 x34 + 15895 x35 + 16497 x36 + 16498 x37
     + 16499 x38 + 16533 x39 + 16534 x40 + 16535 x41 + 16569 x42 + 16571 x43
     + 29579 x44 + 29580 x45 + 29615 x46 + 29616 x47 + 29652 x48 + 29653 x49
     + 30255 x50 <= 466573
Bounds
 0 <= x1 <= 1
 0 <= x2 <= 1
 0 <= x3 <= 1
 0 <= x4 <= 1
 0 <= x5 <= 1
 0 <= x6 <= 1
 0 <= x7 <= 1
 0 <= x8 <= 1
 0 <= x9 <= 1
 0 <= x10 <= 1
 0 <= x11 <= 1
 0 <= x12 <= 1
 0 <= x13 <= 1
 0 <= x14 <= 1
 0 <= x15 <= 1
 0 <= x16 <= 1
 0 <= x17 <= 1
 0 <= x18 <= 1
 0 <= x19 <= 1
 0 <= x20 <= 1
 0 <= x21 <= 1
 0 <= x22 <= 1
 0 <= x23 <= 1
 0 <= x24 <= 1
 0 <= x25 <= 1
 0 <= x26 <= 1
 0 <= x27 <= 1
 0 <= x28 <= 1
 0 <= x29 <= 1
 0 <= x30 <= 1
 0 <= x31 <= 1
 0 <= x32 <= 1
 0 <= x33 <= 1
 0 <= x34 <= 1
 0 <= x35 <= 1
 0 <= x36 <= 1
 0 <= x37 <= 1
 0 <= x38 <= 1
 0 <= x39 <= 1
 0 <= x40 <= 1
 0 <= x41 <= 1
 0 <= x42 <= 1
 0 <= x43 <= 1
 0 <= x44 <= 1
 0 <= x45 <= 1
 0 <= x46 <= 1
 0 <= x47 <= 1
 0 <= x48 <= 1
 0 <= x49 <= 1
 0 <= x50 <= 1
Binaries
 x1  x2  x3  x4  x5  x6  x7  x8  x9  x10  x11  x12  x13  x14  x15  x16  x17 
 x18  x19  x20  x21  x22  x23  x24  x25  x26  x27  x28  x29  x30  x31  x32 
 x33  x34  x35  x36  x37  x38  x39  x40  x41  x42  x43  x44  x45  x46  x47 
 x48  x49  x50 
End
