CKP/CKP_n50_Instance_10.lp.txt
\ENCODING=ISO-8859-1
\Problem name: CKP

Maximize
 obj: x1 + x2 + x3 + x4 + x5 + x6 + x7 + x8 + x9 + x10 + x11 + x12 + x13 + x14
      + x15 + x16 + x17 + x18 + x19 + x20 + x21 + x22 + x23 + x24 + x25 + x26
      + x27 + x28 + x29 + x30 + x31 + x32 + x33 + x34 + x35 + x36 + x37 + x38
      + x39 + x40 + x41 + x42 + x43 + x44 + x45 + x46 + x47 + x48 + x49 + x50
Subject To
 c1: 14393 x1 + 14394 x2 + 14395 x3 + 14429 x4 + 14430 x5 + 14431 x6 + 14465 x7
     + 14466 x8 + 14467 x9 + 15074 x10 + 15075 x11 + 15076 x12 + 15110 x13
     + 15111 x14 + 15112 x15 + 15146 x16 + 15147 x17 + 15148 x18 + 15755 x19
     + 15756 x20 + 15757 x21 + 15791 x22 + 15792 x23 + 14393 x24 + 14394 x25
     + 14395 x26 + 14429 x27 + 14430 x28 + 14465 x29 + 14466 x30 + 14467 x31
     + 15074 x32 + 15076 x33 + 15110 x34 + 15111 x35 + 15112 x36 + 15146 x37
     + 15147 x38 + 15755 x39 + 15756 x40 + 15757 x41 + 15791 x42 + 15792 x43
     + 15827 x44 + 28070 x45 + 28106 x46 + 28107 x47 + 28108 x48 + 28142 x49
     + 28143 x50 >= 385157
 c2: 14393 x1 + 14394 x2 + 14395 x3 + 14429 x4 + 14430 x5 + 14431 x6 + 14465 x7
     + 14466 x8 + 14467 x9 + 15074 x10 + 15075 x11 + 15076 x12 + 15110 x13
     + 15111 x14 + 15112 x15 + 15146 x16 + 15147 x17 + 15148 x18 + 15755 x19
     + 15756 x20 + 15757 x21 + 15791 x22 + 15792 x23 + 14393 x24 + 14394 x25
     + 14395 x26 + 14429 x27 + 14430 x28 + 14465 x29 + 14466 x30 + 14467 x31
     + 15074 x32 + 15076 x33 + 15110 x34 + 15111 x35 + 15112 x36 + 15146 x37
     + 15147 x38 + 15755 x39 + 15756 x40 + 15757 x41 + 15791 x42 + 15792 x43
     + 15827 x44 + 28070 x45 + 28106 x46 + 28107 x47 + 28108 x48 + 28142 x49
     + 28143 x50 <= 385158
Bounds
 0 <= x1 <= 1
 0 <= x2 <= 1
 0 <= x3 <= 1
 0 <= x4 <= 1
 0 <= x5 <= 1
 0 <= x6 <= 1
 0 <= x7 <= 1
 0 <= x8 <= 1
 0 <= x9 <= 1
 0 <= x10 <= 1
 0 <= x11 <= 1
 0 <= x12 <= 1
 0 <= x13 <= 1
 0 <= x14 <= 1
 0 <= x15 <= 1
 0 <= x16 <= 1
 0 <= x17 <= 1
 0 <= x18 <= 1
 0 <= x19 <= 1
 0 <= x20 <= 1
 0 <= x21 <= 1
 0 <= x22 <= 1
 0 <= x23 <= 1
 0 <= x24 <= 1
 0 <= x25 <= 1
 0 <= x26 <= 1
 0 <= x27 <= 1
 0 <= x28 <= 1
 0 <= x29 <= 1
 0 <= x30 <= 1
 0 <= x31 <= 1
 0 <= x32 <= 1
 0 <= x33 <= 1
 0 <= x34 <= 1
 0 <= x35 <= 1
 0 <= x36 <= 1
 0 <= x37 <= 1
 0 <= x38 <= 1
 0 <= x39 <= 1
 0 <= x40 <= 1
 0 <= x41 <= 1
 0 <= x42 <= 1
 0 <= x43 <= 1
 0 <= x44 <= 1
 0 <= x45 <= 1
 0 <= x46 <= 1
 0 <= x47 <= 1
 0 <= x48 <= 1
 0 <= x49 <= 1
 0 <= x50 <= 1
Binaries
 x1  x2  x3  x4  x5  x6  x7  x8  x9  x10  x11  x12  x13  x14  x15  x16  x17 
 x18  x19  x20  x21  x22  x23  x24  x25  x26  x27  x28  x29  x30  x31  x32 
 x33  x34  x35  x36  x37  x38  x39  x40  x41  x42  x43  x44  x45  x46  x47 
 x48  x49  x50 
End
